 Code  1233
 Dimension, Fixed Cost
   100        3000
 Facility, Client, Transportation Cost
     1       14           2
     1       44           3
     1       68           0
     1       91           2
     1       95           0
     1       96           0
     1       97           4
     1       98           3
     1       99           3
     1      100           1
     2        5           3
     2        7           2
     2       29           3
     2       37           4
     2       57           2
     2       73           2
     2       76           0
     2       78           2
     2       89           4
     2       95           0
     3       29           4
     3       40           1
     3       44           0
     3       59           3
     3       61           0
     3       63           1
     3       80           3
     3       87           2
     3       89           4
     3       90           3
     4       16           4
     4       19           2
     4       24           3
     4       27           4
     4       33           4
     4       48           4
     4       50           2
     4       72           0
     4       88           2
     4       92           1
     5       23           2
     5       31           4
     5       35           0
     5       47           3
     5       52           0
     5       54           3
     5       57           0
     5       74           4
     5       85           4
     5       90           3
     6        3           2
     6       23           0
     6       26           4
     6       38           3
     6       56           4
     6       59           4
     6       69           2
     6       79           4
     6       90           3
     6       91           4
     7       29           0
     7       31           2
     7       39           0
     7       51           3
     7       56           0
     7       59           4
     7       64           3
     7       73           3
     7       82           4
     7       86           4
     8       24           1
     8       36           2
     8       40           1
     8       42           2
     8       52           4
     8       56           3
     8       62           2
     8       72           4
     8       78           0
     8       82           4
     9       26           1
     9       28           3
     9       46           2
     9       53           0
     9       77           3
     9       86           3
     9       88           1
     9       91           4
     9       92           4
     9       94           3
    10        2           3
    10       17           3
    10       27           4
    10       31           4
    10       45           0
    10       66           2
    10       83           1
    10       87           4
    10       89           1
    10       91           1
    11        2           0
    11        8           2
    11       12           3
    11       20           3
    11       23           1
    11       26           0
    11       28           3
    11       40           1
    11       41           0
    11       45           3
    12       20           3
    12       63           0
    12       66           2
    12       79           4
    12       86           3
    12       87           2
    12       90           4
    12       95           3
    12       97           0
    12       98           2
    13        9           4
    13       19           2
    13       23           4
    13       27           2
    13       33           3
    13       48           0
    13       61           2
    13       66           4
    13       68           2
    13       73           1
    14        2           2
    14        5           4
    14        7           0
    14       10           2
    14       21           1
    14       34           3
    14       39           4
    14       62           2
    14       69           2
    14       79           4
    15        9           2
    15       54           0
    15       67           2
    15       89           0
    15       95           4
    15       96           3
    15       97           4
    15       98           0
    15       99           4
    15      100           0
    16       12           2
    16       15           1
    16       25           3
    16       46           2
    16       76           1
    16       80           2
    16       81           2
    16       82           1
    16       83           0
    16       90           3
    17       25           1
    17       47           0
    17       79           2
    17       87           4
    17       92           2
    17       95           4
    17       97           1
    17       98           2
    17       99           1
    17      100           0
    18        3           2
    18        7           0
    18        8           4
    18       18           4
    18       19           4
    18       27           4
    18       41           1
    18       49           0
    18       51           2
    18       64           1
    19        9           0
    19       15           1
    19       31           0
    19       33           0
    19       34           1
    19       42           3
    19       53           1
    19       60           3
    19       68           2
    19       75           1
    20        3           0
    20       12           1
    20       42           1
    20       46           1
    20       53           0
    20       54           0
    20       56           4
    20       87           4
    20       91           3
    20       97           4
    21        1           2
    21       19           1
    21       35           1
    21       48           0
    21       53           3
    21       57           2
    21       62           4
    21       65           3
    21       68           0
    21       81           1
    22       32           2
    22       45           2
    22       46           1
    22       52           4
    22       54           3
    22       63           1
    22       67           1
    22       69           0
    22       71           1
    22       94           0
    23        6           0
    23       12           3
    23       17           0
    23       22           2
    23       25           4
    23       40           2
    23       65           2
    23       69           3
    23       77           1
    23       81           4
    24        5           0
    24        7           0
    24       15           0
    24       19           0
    24       42           3
    24       43           3
    24       66           2
    24       70           4
    24       83           1
    24       85           4
    25        4           3
    25        9           4
    25       17           1
    25       20           3
    25       45           2
    25       52           3
    25       61           1
    25       72           3
    25       82           2
    25       84           0
    26        2           0
    26       41           3
    26       45           0
    26       50           1
    26       60           0
    26       68           2
    26       84           2
    26       93           2
    26       95           0
    26       97           0
    27        4           4
    27        5           4
    27        6           4
    27       11           2
    27       12           3
    27       13           2
    27       28           3
    27       31           3
    27       62           2
    27       84           1
    28        5           3
    28       31           3
    28       32           1
    28       37           3
    28       85           0
    28       86           2
    28       94           1
    28       97           0
    28       99           0
    28      100           1
    29       42           3
    29       43           3
    29       50           4
    29       53           0
    29       72           1
    29       81           0
    29       91           4
    29       93           3
    29       96           0
    29       98           1
    30       18           0
    30       21           0
    30       30           4
    30       33           3
    30       34           1
    30       43           2
    30       55           3
    30       63           0
    30       76           0
    30       93           1
    31        1           1
    31        3           3
    31       22           2
    31       35           4
    31       37           0
    31       38           3
    31       48           4
    31       50           1
    31       75           3
    31       77           2
    32        6           1
    32        8           1
    32       20           2
    32       21           0
    32       23           1
    32       47           2
    32       58           2
    32       62           0
    32       68           1
    32       86           3
    33       11           2
    33       14           0
    33       15           2
    33       36           0
    33       38           1
    33       45           3
    33       49           4
    33       75           2
    33       76           3
    33       79           4
    34        6           4
    34       20           1
    34       24           0
    34       30           0
    34       48           3
    34       51           2
    34       59           1
    34       64           1
    34       70           3
    34       74           3
    35        2           2
    35        7           2
    35        9           0
    35       22           2
    35       27           0
    35       40           0
    35       43           4
    35       55           4
    35       65           2
    35       69           0
    36        7           2
    36       16           1
    36       17           2
    36       22           2
    36       34           2
    36       45           3
    36       48           1
    36       83           4
    36       92           1
    36       93           4
    37       10           0
    37       17           3
    37       18           2
    37       53           3
    37       71           4
    37       72           1
    37       88           0
    37       95           4
    37       96           3
    37       98           4
    38        4           3
    38       11           4
    38       16           3
    38       17           4
    38       35           1
    38       38           4
    38       39           4
    38       49           3
    38       56           3
    38       64           1
    39       13           1
    39       20           3
    39       32           2
    39       52           1
    39       55           0
    39       57           3
    39       75           2
    39       76           4
    39       77           4
    39       80           2
    40        2           4
    40        7           4
    40        8           4
    40       16           1
    40       22           1
    40       24           4
    40       38           4
    40       48           3
    40       49           0
    40       58           1
    41       17           0
    41       21           0
    41       29           2
    41       45           1
    41       50           3
    41       51           1
    41       56           4
    41       58           1
    41       60           3
    41       65           0
    42        4           2
    42       17           2
    42       18           0
    42       43           0
    42       44           2
    42       74           0
    42       82           2
    42       85           0
    42       88           2
    42       93           1
    43        9           2
    43       25           0
    43       44           0
    43       56           3
    43       66           3
    43       68           4
    43       78           4
    43       79           0
    43       85           2
    43       94           1
    44       18           2
    44       24           2
    44       28           3
    44       30           4
    44       62           2
    44       66           4
    44       70           0
    44       75           0
    44       83           3
    44       86           3
    45       26           0
    45       41           1
    45       47           2
    45       49           2
    45       54           0
    45       55           4
    45       58           0
    45       64           0
    45       71           4
    45       81           2
    46       14           1
    46       16           4
    46       29           0
    46       36           2
    46       44           2
    46       53           0
    46       54           2
    46       60           3
    46       62           1
    46       75           0
    47       22           3
    47       26           1
    47       31           4
    47       32           4
    47       36           2
    47       38           1
    47       46           2
    47       79           4
    47       88           2
    47       91           2
    48       10           0
    48       13           4
    48       15           0
    48       22           1
    48       48           3
    48       57           0
    48       64           2
    48       66           3
    48       71           3
    48       73           4
    49        5           3
    49       14           2
    49       39           1
    49       44           2
    49       49           4
    49       58           0
    49       59           4
    49       66           1
    49       84           0
    49       85           0
    50        1           0
    50        3           3
    50        5           4
    50       15           3
    50       29           0
    50       55           1
    50       59           1
    50       70           3
    50       87           2
    50       93           4
    51        8           1
    51       25           0
    51       43           2
    51       47           3
    51       79           1
    51       84           3
    51       92           2
    51       94           3
    51       95           3
    51      100           4
    52        8           0
    52       27           1
    52       29           0
    52       35           0
    52       48           1
    52       78           0
    52       81           3
    52       82           3
    52       85           3
    52       93           4
    53        6           4
    53        9           4
    53       15           1
    53       59           0
    53       65           4
    53       73           2
    53       92           1
    53       98           2
    53       99           0
    53      100           2
    54        3           4
    54       13           3
    54       28           4
    54       52           0
    54       63           1
    54       74           1
    54       87           0
    54       89           2
    54       96           1
    54      100           2
    55       44           1
    55       58           3
    55       68           4
    55       72           3
    55       73           3
    55       86           2
    55       92           3
    55       96           2
    55       97           2
    55      100           4
    56       34           1
    56       37           2
    56       39           4
    56       42           0
    56       48           2
    56       55           2
    56       57           2
    56       67           4
    56       83           2
    56       84           1
    57       11           1
    57       20           4
    57       22           0
    57       26           4
    57       27           4
    57       30           2
    57       58           0
    57       60           1
    57       63           2
    57       84           3
    58        4           0
    58       18           1
    58       25           2
    58       45           3
    58       61           4
    58       69           4
    58       74           2
    58       80           1
    58       81           2
    58       85           1
    59       10           4
    59       21           1
    59       23           4
    59       71           4
    59       77           1
    59       78           3
    59       80           4
    59       86           1
    59       90           2
    59       92           1
    60        1           1
    60        3           0
    60       16           1
    60       28           0
    60       31           4
    60       35           1
    60       37           2
    60       41           1
    60       53           0
    60       58           4
    61        3           2
    61       23           1
    61       29           4
    61       50           3
    61       71           3
    61       74           2
    61       75           4
    61       87           2
    61       89           4
    61       93           0
    62       17           0
    62       18           0
    62       28           3
    62       32           0
    62       34           0
    62       41           3
    62       46           1
    62       51           4
    62       55           3
    62       64           1
    63        1           2
    63       13           2
    63       22           4
    63       28           0
    63       30           4
    63       51           2
    63       62           3
    63       63           2
    63       77           0
    63       87           2
    64        1           2
    64        6           3
    64       10           2
    64       14           2
    64       23           3
    64       38           3
    64       41           2
    64       61           1
    64       70           1
    64       73           3
    65        2           4
    65        4           3
    65        5           3
    65       11           3
    65       32           0
    65       53           2
    65       74           4
    65       80           4
    65       82           1
    65       89           3
    66        1           2
    66       19           1
    66       28           0
    66       47           1
    66       49           1
    66       67           4
    66       78           2
    66       80           3
    66       83           1
    66       89           3
    67       10           0
    67       33           2
    67       57           0
    67       75           2
    67       87           1
    67       89           1
    67       92           4
    67       94           1
    67       99           2
    67      100           4
    68        1           3
    68       32           2
    68       47           4
    68       59           1
    68       64           3
    68       71           0
    68       75           1
    68       78           4
    68       84           1
    68       88           1
    69        4           4
    69        9           3
    69       14           3
    69       37           4
    69       41           2
    69       52           2
    69       60           0
    69       76           3
    69       81           4
    69       86           2
    70        2           2
    70       18           0
    70       26           3
    70       42           4
    70       81           0
    70       83           0
    70       90           4
    70       94           2
    70       96           3
    70       98           0
    71        7           0
    71        8           0
    71       21           0
    71       39           1
    71       65           1
    71       66           0
    71       78           1
    71       83           4
    71       84           2
    71       91           4
    72        6           0
    72        8           1
    72       12           1
    72       25           0
    72       36           3
    72       51           3
    72       54           1
    72       55           2
    72       75           0
    72       77           0
    73        5           0
    73       21           4
    73       24           4
    73       47           4
    73       56           1
    73       58           3
    73       66           0
    73       70           0
    73       77           2
    73       83           1
    74        8           4
    74       26           4
    74       30           4
    74       36           2
    74       38           2
    74       44           1
    74       57           0
    74       63           3
    74       72           4
    74       80           2
    75        4           4
    75       13           4
    75       23           0
    75       32           1
    75       43           2
    75       51           2
    75       58           2
    75       60           3
    75       63           2
    75       65           0
    76        1           0
    76        9           4
    76       14           4
    76       25           2
    76       27           3
    76       38           4
    76       43           3
    76       51           4
    76       71           0
    76       76           1
    77       16           2
    77       40           1
    77       65           0
    77       78           3
    77       80           4
    77       82           2
    77       91           1
    77       94           4
    77       95           2
    77       96           2
    78        8           2
    78        9           2
    78       13           1
    78       16           0
    78       35           0
    78       42           3
    78       56           0
    78       62           4
    78       67           0
    78       72           2
    79        6           0
    79       19           2
    79       30           1
    79       33           0
    79       37           4
    79       55           2
    79       82           2
    79       90           2
    79       92           4
    79       99           4
    80        5           0
    80       14           2
    80       25           3
    80       30           2
    80       46           0
    80       67           3
    80       85           4
    80       88           3
    80       91           2
    80       98           3
    81       12           4
    81       21           1
    81       34           4
    81       36           2
    81       40           3
    81       49           4
    81       56           4
    81       67           0
    81       69           3
    81       70           1
    82        1           4
    82       19           4
    82       33           1
    82       42           0
    82       43           0
    82       65           2
    82       70           0
    82       76           1
    82       79           1
    82       85           1
    83       10           3
    83       11           0
    83       20           0
    83       88           3
    83       95           2
    83       96           3
    83       97           1
    83       98           1
    83       99           0
    83      100           0
    84        2           3
    84        6           2
    84       14           4
    84       20           4
    84       37           3
    84       54           0
    84       61           2
    84       67           2
    84       70           3
    84       72           4
    85        2           2
    85        7           2
    85       10           3
    85       16           3
    85       50           4
    85       55           0
    85       61           0
    85       63           0
    85       65           1
    85       68           0
    86        4           3
    86       10           4
    86       11           3
    86       15           2
    86       42           3
    86       52           1
    86       57           2
    86       73           2
    86       76           3
    86       77           4
    87        4           2
    87       49           0
    87       51           1
    87       54           2
    87       61           1
    87       72           4
    87       82           3
    87       84           4
    87       88           1
    87       89           2
    88       10           0
    88       19           3
    88       35           2
    88       37           0
    88       39           0
    88       50           3
    88       59           3
    88       60           0
    88       61           4
    88       74           0
    89       12           0
    89       30           3
    89       33           1
    89       39           0
    89       45           3
    89       46           0
    89       57           3
    89       61           0
    89       64           1
    89       70           2
    90        3           0
    90       11           3
    90       23           1
    90       24           0
    90       34           3
    90       44           4
    90       53           0
    90       67           4
    90       69           1
    90       73           4
    91       15           1
    91       21           2
    91       24           0
    91       34           0
    91       35           0
    91       40           2
    91       50           4
    91       60           0
    91       62           3
    91       73           0
    92       12           1
    92       15           2
    92       17           3
    92       21           2
    92       24           0
    92       26           2
    92       27           1
    92       40           1
    92       44           3
    92       52           4
    93       12           3
    93       27           4
    93       41           3
    93       54           0
    93       60           4
    93       68           3
    93       71           2
    93       76           1
    93       86           4
    93       90           2
    94       13           2
    94       16           3
    94       18           2
    94       30           1
    94       31           0
    94       32           0
    94       33           0
    94       35           4
    94       38           1
    94       41           4
    95       14           0
    95       36           4
    95       43           3
    95       74           0
    95       77           0
    95       81           0
    95       88           0
    95       93           1
    95       96           3
    95       99           2
    96       25           1
    96       34           2
    96       36           4
    96       39           3
    96       46           2
    96       52           3
    96       93           3
    96       94           1
    96       97           2
    96       99           1
    97       11           2
    97       32           3
    97       47           1
    97       50           0
    97       69           1
    97       78           4
    97       79           3
    97       80           3
    97       90           1
    97       94           2
    98        7           2
    98       13           3
    98       18           4
    98       20           1
    98       24           1
    98       31           4
    98       37           4
    98       40           4
    98       47           1
    98       49           4
    99       13           4
    99       19           1
    99       29           2
    99       33           1
    99       36           0
    99       46           2
    99       59           4
    99       64           0
    99       71           4
    99       74           3
   100        3           2
   100        6           2
   100       11           0
   100       22           4
   100       26           0
   100       28           4
   100       29           4
   100       39           0
   100       67           1
   100       69           3
